(set-info :Origin "This instance was generated by: BanditFuzz-- an RL fuzzer for SMT solvers" )
(set-info :Author "Joe Scott, Fed Mora, Vijay Ganesh" )
(set-info :Contact "Joe Scott, joseph.scott@uwaterloo.ca")
; solvers/z3.sh
; 	time => 0.47344303131103516
; 	answer => unsat
; solvers/bitwuzla
; 	time => 0.11454200744628906
; 	answer => unsat
(set-logic QF_BV)
(declare-const bool_0 Bool)
(declare-const bool_1 Bool)
(declare-const bool_2 Bool)
(declare-const bool_3 Bool)
(declare-const bool_4 Bool)
(declare-const bv_0 (_ BitVec 32))
(declare-const bv_1 (_ BitVec 32))
(declare-const bv_2 (_ BitVec 32))
(declare-const bv_3 (_ BitVec 32))
(declare-const bv_4 (_ BitVec 32))
(assert (bvule (bvsdiv (bvsmod bv_1 bv_0) (bvsmod bv_4 #x9ddf8ef1 )) (bvsmod (bvudiv #xee63ac70  bv_4) (bvsrem bv_3 bv_2))))
(assert (bvuge (bvlshr (bvnor #xd00e8286  #x4d511aa3 ) (bvor #x7c4859a4  bv_3)) (bvashr (bvlshr bv_1 bv_3) (bvnor bv_1 #xb48abaa8 ))))
(assert (bvsgt (bvsrem (bvsmod #xd4772c74  bv_4) (bvadd #x73553e58  bv_2)) (bvmul (bvsmod bv_4 #xec855bce ) (bvashr #xc125977d  #x185229db ))))
(assert (bvult (bvurem (bvlshr #x0dc1911d  bv_2) (bvand #xb140db45  #xcc01de69 )) (bvsrem (bvlshr bv_2 #xc9682672 ) (bvand #x782c42df  bv_3))))
(assert (bvslt (bvudiv (bvnand #xf5f40b1c  bv_3) (bvsdiv #xed83367b  bv_1)) (bvashr (bvudiv #xa70c8084  #x329fa9b6 ) (bvnor bv_3 #xd92de9ba ))))
(check-sat)
(exit)
